\ENCODING=ISO-8859-1
\Problem name: Knapsack instance

Maximize
 obj: 15 x_0 + 100 x_1 + 90 x_2 + 60 x_3 + 40 x_4 + 15 x_5 + 10 x_6 + x_7
Subject To
 c1: 2 x_0 + 20 x_1 + 20 x_2 + 30 x_3 + 40 x_4 + 30 x_5 + 60 x_6 + 10 x_7
     <= 102
Bounds
 0 <= x_0 <= 1
 0 <= x_1 <= 1
 0 <= x_2 <= 1
 0 <= x_3 <= 1
 0 <= x_4 <= 1
 0 <= x_5 <= 1
 0 <= x_6 <= 1
 0 <= x_7 <= 1
Binary
 x_0 x_1 x_2 x_3 x_5 x_6 x_7
End
